N = 7;
H = 5;
T = 2;

avail = array3d(1..N, 1..H, 1..T, [1, 6, 2, 5, 6, 8, 4, 6, 4, 8, 1, 4, 1, 2, 1, 1, 4, 5, 9, 6, 5, 3, 7, 7, 2, 4, 3, 1, 0, 1, 5, 0, 0, 2, 5, 3, 1, 10, 6, 1, 7, 8, 5, 6, 0, 3, 8, 4, 3, 6, 1, 10, 9, 6, 5, 5, 0, 4, 1, 9, 0, 6, 7, 3, 1, 9, 6, 5, 1, 0]);

r = array2d(1..H, 1..T, [4, 1, 2, 1, 1, 2, 3, 2, 0, 2]);
